sat
(:max-memory         18.52
 :memory             18.32
 :nlsat-arith-var    3
 :nlsat-atoms        21
 :nlsat-bool-var     5
 :nlsat-clauses      11
 :nlsat-conflicts    2
 :nlsat-decisions    2
 :nlsat-propagations 22
 :nlsat-stages       6
 :num-allocs         92576
 :rlimit-count       19037
 :time               0.01
 :total-time         0.02)
